matrix = [|
  1, 57, 1, 9, 2, 8, 3, 18, 12, 29, 0, 0, 0, 0, 0, 0, 0, 0, 0, 0, 0, 0, 0, 0, 0, 0, 0, 0, 0, 0, 0, 0, 0, 0, 0, 0, 0, 0 |
  5, 46, 0, 8, 11, 12, 30, 35, 15, 2, 22, 5, 25, 13, 3, 14, 1, 23, 0, 0, 0, 0, 0, 0, 0, 0, 0, 0, 0, 0, 0, 0, 0, 0, 0, 0, 0, 0 |
  1, 79, 0, 23, 3, 22, 12, 28, 26, 10, 25, 35, 0, 0, 0, 0, 0, 0, 0, 0, 0, 0, 0, 0, 0, 0, 0, 0, 0, 0, 0, 0, 0, 0, 0, 0, 0, 0 |
  2, 45, 1, 4, 13, 23, 22, 2, 32, 6, 25, 33, 9, 3, 18, 1, 20, 11, 0, 0, 0, 0, 0, 0, 0, 0, 0, 0, 0, 0, 0, 0, 0, 0, 0, 0, 0, 0 |
  5, 58, 1, 13, 11, 1, 30, 2, 15, 31, 10, 29, 9, 5, 17, 0, 0, 0, 0, 0, 0, 0, 0, 0, 0, 0, 0, 0, 0, 0, 0, 0, 0, 0, 0, 0, 0, 0 |
  8, 54, 0, 6, 7, 35, 3, 23, 26, 1, 10, 33, 22, 17, 2, 0, 0, 0, 0, 0, 0, 0, 0, 0, 0, 0, 0, 0, 0, 0, 0, 0, 0, 0, 0, 0, 0, 0 |
  2, 71, 0, 33, 4, 6, 15, 21, 2, 28, 24, 27, 20, 25, 0, 0, 0, 0, 0, 0, 0, 0, 0, 0, 0, 0, 0, 0, 0, 0, 0, 0, 0, 0, 0, 0, 0, 0 |
  3, 45, 1, 12, 16, 23, 34, 13, 29, 19, 3, 31, 22, 17, 1, 4, 8, 0, 0, 0, 0, 0, 0, 0, 0, 0, 0, 0, 0, 0, 0, 0, 0, 0, 0, 0, 0, 0 |
  9, 62, 0, 35, 14, 5, 7, 26, 33, 17, 32, 0, 0, 0, 0, 0, 0, 0, 0, 0, 0, 0, 0, 0, 0, 0, 0, 0, 0, 0, 0, 0, 0, 0, 0, 0, 0, 0 |
  2, 43, 0, 3, 28, 17, 32, 7, 18, 21, 22, 15, 0, 0, 0, 0, 0, 0, 0, 0, 0, 0, 0, 0, 0, 0, 0, 0, 0, 0, 0, 0, 0, 0, 0, 0, 0, 0 |
  4, 47, 1, 25, 26, 4, 8, 16, 30, 27, 18, 32, 15, 13, 19, 0, 0, 0, 0, 0, 0, 0, 0, 0, 0, 0, 0, 0, 0, 0, 0, 0, 0, 0, 0, 0, 0, 0 |
  3, 68, 1, 6, 4, 2, 27, 19, 15, 33, 8, 1, 26, 30, 32, 25, 3, 18, 23, 22, 31, 0, 0, 0, 0, 0, 0, 0, 0, 0, 0, 0, 0, 0, 0, 0, 0, 0 |
  1, 62, 0, 9, 28, 7, 27, 19, 25, 2, 18, 31, 13, 16, 3, 17, 14, 6, 0, 0, 0, 0, 0, 0, 0, 0, 0, 0, 0, 0, 0, 0, 0, 0, 0, 0, 0, 0 |
  4, 78, 1, 1, 3, 29, 16, 31, 32, 5, 19, 23, 18, 11, 0, 0, 0, 0, 0, 0, 0, 0, 0, 0, 0, 0, 0, 0, 0, 0, 0, 0, 0, 0, 0, 0, 0, 0 |
  3, 67, 1, 22, 4, 9, 33, 15, 13, 6, 19, 3, 11, 25, 32, 27, 18, 5, 0, 0, 0, 0, 0, 0, 0, 0, 0, 0, 0, 0, 0, 0, 0, 0, 0, 0, 0, 0 |
  1, 58, 0, 19, 10, 18, 35, 25, 24, 22, 4, 7, 27, 6, 11, 29, 33, 3, 0, 0, 0, 0, 0, 0, 0, 0, 0, 0, 0, 0, 0, 0, 0, 0, 0, 0, 0, 0 |
  2, 45, 0, 19, 7, 14, 12, 22, 34, 30, 2, 32, 5, 3, 0, 0, 0, 0, 0, 0, 0, 0, 0, 0, 0, 0, 0, 0, 0, 0, 0, 0, 0, 0, 0, 0, 0, 0 |
  9, 62, 0, 21, 4, 33, 17, 28, 26, 11, 15, 0, 0, 0, 0, 0, 0, 0, 0, 0, 0, 0, 0, 0, 0, 0, 0, 0, 0, 0, 0, 0, 0, 0, 0, 0, 0, 0 |
  5, 51, 0, 35, 6, 21, 3, 26, 28, 8, 7, 23, 29, 0, 0, 0, 0, 0, 0, 0, 0, 0, 0, 0, 0, 0, 0, 0, 0, 0, 0, 0, 0, 0, 0, 0, 0, 0 |
  2, 58, 1, 3, 1, 17, 13, 19, 12, 33, 0, 0, 0, 0, 0, 0, 0, 0, 0, 0, 0, 0, 0, 0, 0, 0, 0, 0, 0, 0, 0, 0, 0, 0, 0, 0, 0, 0 |
  4, 67, 0, 11, 4, 3, 19, 31, 23, 22, 35, 0, 0, 0, 0, 0, 0, 0, 0, 0, 0, 0, 0, 0, 0, 0, 0, 0, 0, 0, 0, 0, 0, 0, 0, 0, 0, 0 |
  4, 53, 1, 3, 17, 34, 24, 25, 20, 12, 27, 15, 23, 13, 16, 0, 0, 0, 0, 0, 0, 0, 0, 0, 0, 0, 0, 0, 0, 0, 0, 0, 0, 0, 0, 0, 0, 0 |
  2, 66, 1, 4, 13, 29, 11, 15, 6, 16, 2, 20, 10, 18, 31, 1, 30, 0, 0, 0, 0, 0, 0, 0, 0, 0, 0, 0, 0, 0, 0, 0, 0, 0, 0, 0, 0, 0 |
  5, 51, 1, 22, 9, 26, 4, 24, 18, 27, 2, 23, 11, 10, 19, 30, 29, 31, 1, 5, 3, 32, 34, 0, 0, 0, 0, 0, 0, 0, 0, 0, 0, 0, 0, 0, 0, 0 |
  7, 79, 0, 10, 16, 25, 18, 22, 34, 1, 11, 29, 9, 7, 24, 35, 32, 12, 19, 6, 31, 4, 0, 0, 0, 0, 0, 0, 0, 0, 0, 0, 0, 0, 0, 0, 0, 0 |
  4, 57, 0, 13, 24, 30, 20, 15, 25, 7, 31, 4, 33, 0, 0, 0, 0, 0, 0, 0, 0, 0, 0, 0, 0, 0, 0, 0, 0, 0, 0, 0, 0, 0, 0, 0, 0, 0 |
  2, 68, 1, 16, 10, 18, 31, 24, 2, 12, 27, 0, 0, 0, 0, 0, 0, 0, 0, 0, 0, 0, 0, 0, 0, 0, 0, 0, 0, 0, 0, 0, 0, 0, 0, 0, 0, 0 |
  8, 48, 1, 2, 8, 30, 32, 6, 18, 15, 5, 20, 0, 0, 0, 0, 0, 0, 0, 0, 0, 0, 0, 0, 0, 0, 0, 0, 0, 0, 0, 0, 0, 0, 0, 0, 0, 0 |
  10, 45, 0, 19, 25, 3, 13, 16, 34, 35, 22, 26, 17, 12, 18, 14, 33, 9, 20, 5, 30, 29, 24, 8, 0, 0, 0, 0, 0, 0, 0, 0, 0, 0, 0, 0, 0, 0 |
  5, 75, 1, 2, 9, 11, 19, 13, 16, 25, 8, 6, 22, 5, 27, 23, 32, 31, 15, 10, 34, 0, 0, 0, 0, 0, 0, 0, 0, 0, 0, 0, 0, 0, 0, 0, 0, 0 |
  7, 49, 0, 2, 15, 6, 28, 10, 31, 24, 16, 1, 4, 3, 27, 0, 0, 0, 0, 0, 0, 0, 0, 0, 0, 0, 0, 0, 0, 0, 0, 0, 0, 0, 0, 0, 0, 0 |
  2, 54, 1, 24, 16, 13, 23, 18, 26, 11, 2, 33, 3, 12, 15, 22, 10, 5, 32, 4, 19, 20, 6, 0, 0, 0, 0, 0, 0, 0, 0, 0, 0, 0, 0, 0, 0, 0 |
  1, 77, 1, 15, 27, 23, 20, 17, 3, 22, 8, 4, 25, 34, 12, 10, 33, 26, 0, 0, 0, 0, 0, 0, 0, 0, 0, 0, 0, 0, 0, 0, 0, 0, 0, 0, 0, 0 |
  3, 40, 1, 6, 1, 33, 32, 2, 5, 26, 19, 23, 12, 31, 8, 0, 0, 0, 0, 0, 0, 0, 0, 0, 0, 0, 0, 0, 0, 0, 0, 0, 0, 0, 0, 0, 0, 0 |
  1, 74, 0, 10, 11, 23, 31, 24, 26, 20, 8, 17, 4, 9, 27, 16, 2, 30, 0, 0, 0, 0, 0, 0, 0, 0, 0, 0, 0, 0, 0, 0, 0, 0, 0, 0, 0, 0 |
  10, 47, 1, 34, 5, 8, 25, 19, 29, 24, 26, 11, 31, 17, 10, 30, 1, 32, 9, 0, 0, 0, 0, 0, 0, 0, 0, 0, 0, 0, 0, 0, 0, 0, 0, 0, 0, 0 |
  5, 43, 1, 19, 29, 3, 13, 10, 12, 23, 24, 33, 27, 2, 18, 1, 4, 22, 8, 15, 34, 9, 17, 32, 0, 0, 0, 0, 0, 0, 0, 0, 0, 0, 0, 0, 0, 0 |
  4, 54, 1, 11, 23, 18, 6, 31, 20, 5, 16, 29, 0, 0, 0, 0, 0, 0, 0, 0, 0, 0, 0, 0, 0, 0, 0, 0, 0, 0, 0, 0, 0, 0, 0, 0, 0, 0 |
  3, 61, 0, 3, 1, 32, 8, 24, 16, 7, 23, 14, 26, 10, 27, 19, 6, 9, 35, 21, 20, 0, 0, 0, 0, 0, 0, 0, 0, 0, 0, 0, 0, 0, 0, 0, 0, 0 |
  2, 68, 1, 10, 34, 12, 18, 27, 30, 32, 17, 4, 25, 29, 15, 24, 19, 9, 26, 0, 0, 0, 0, 0, 0, 0, 0, 0, 0, 0, 0, 0, 0, 0, 0, 0, 0, 0 |
|];
